53 300 113 137 118 146 143 127 109 105 148 145 132 127 145 146 105 117 127 108 129 141 128 133 125 113 103 115 103 111 135 127 118 148 138 137 143 105 113 127 110 136 121 117 112 140 137 142 106 113 150 109 129 101 142 